p edge 64 2016
e 1 2 289.0
e 1 3 889.0
e 1 4 -146.0
e 1 5 -262.0
e 1 6 -665.0
e 1 7 513.0
e 1 8 326.0
e 1 9 107.0
e 1 10 -34.0
e 1 11 517.0
e 1 12 731.0
e 1 13 -164.0
e 1 14 -837.0
e 1 15 265.0
e 1 16 216.0
e 1 17 813.0
e 1 18 -778.0
e 1 19 -451.0
e 1 20 592.0
e 1 21 -870.0
e 1 22 431.0
e 1 23 466.0
e 1 24 -995.0
e 1 25 -252.0
e 1 26 -841.0
e 1 27 -934.0
e 1 28 -32.0
e 1 29 206.0
e 1 30 972.0
e 1 31 275.0
e 1 32 631.0
e 1 33 -257.0
e 1 34 -477.0
e 1 35 370.0
e 1 36 -897.0
e 1 37 -662.0
e 1 38 258.0
e 1 39 276.0
e 1 40 282.0
e 1 41 -510.0
e 1 42 -588.0
e 1 43 -198.0
e 1 44 183.0
e 1 45 -420.0
e 1 46 -92.0
e 1 47 -592.0
e 1 48 -943.0
e 1 49 150.0
e 1 50 -31.0
e 1 51 993.0
e 1 52 -971.0
e 1 53 417.0
e 1 54 670.0
e 1 55 997.0
e 1 56 829.0
e 1 57 840.0
e 1 58 -404.0
e 1 59 713.0
e 1 60 -249.0
e 1 61 -552.0
e 1 62 -96.0
e 1 63 -342.0
e 1 64 -367.0
e 2 3 -296.0
e 2 4 -398.0
e 2 5 542.0
e 2 6 -484.0
e 2 7 946.0
e 2 8 -827.0
e 2 9 935.0
e 2 10 940.0
e 2 11 403.0
e 2 12 -177.0
e 2 13 550.0
e 2 14 991.0
e 2 15 823.0
e 2 16 660.0
e 2 17 -729.0
e 2 18 865.0
e 2 19 -135.0
e 2 20 880.0
e 2 21 888.0
e 2 22 924.0
e 2 23 453.0
e 2 24 25.0
e 2 25 731.0
e 2 26 14.0
e 2 27 -504.0
e 2 28 -870.0
e 2 29 -469.0
e 2 30 -437.0
e 2 31 488.0
e 2 32 -400.0
e 2 33 -600.0
e 2 34 -31.0
e 2 35 824.0
e 2 36 723.0
e 2 37 -110.0
e 2 38 -331.0
e 2 39 543.0
e 2 40 -81.0
e 2 41 591.0
e 2 42 241.0
e 2 43 683.0
e 2 44 -36.0
e 2 45 -780.0
e 2 46 -200.0
e 2 47 124.0
e 2 48 -282.0
e 2 49 779.0
e 2 50 -262.0
e 2 51 300.0
e 2 52 9.0
e 2 53 410.0
e 2 54 454.0
e 2 55 844.0
e 2 56 785.0
e 2 57 139.0
e 2 58 400.0
e 2 59 628.0
e 2 60 435.0
e 2 61 396.0
e 2 62 -391.0
e 2 63 -564.0
e 2 64 697.0
e 3 4 -779.0
e 3 5 -314.0
e 3 6 -499.0
e 3 7 227.0
e 3 8 618.0
e 3 9 526.0
e 3 10 289.0
e 3 11 -361.0
e 3 12 27.0
e 3 13 -630.0
e 3 14 477.0
e 3 15 -595.0
e 3 16 434.0
e 3 17 -118.0
e 3 18 -712.0
e 3 19 -111.0
e 3 20 968.0
e 3 21 -597.0
e 3 22 -400.0
e 3 23 144.0
e 3 24 731.0
e 3 25 -50.0
e 3 26 309.0
e 3 27 -613.0
e 3 28 -333.0
e 3 29 234.0
e 3 30 75.0
e 3 31 -518.0
e 3 32 767.0
e 3 33 -226.0
e 3 34 -393.0
e 3 35 831.0
e 3 36 705.0
e 3 37 205.0
e 3 38 -678.0
e 3 39 861.0
e 3 40 564.0
e 3 41 -741.0
e 3 42 -828.0
e 3 43 785.0
e 3 44 -228.0
e 3 45 -459.0
e 3 46 249.0
e 3 47 662.0
e 3 48 678.0
e 3 49 861.0
e 3 50 -863.0
e 3 51 -702.0
e 3 52 -422.0
e 3 53 459.0
e 3 54 21.0
e 3 55 638.0
e 3 56 5.0
e 3 57 -838.0
e 3 58 -955.0
e 3 59 -240.0
e 3 60 464.0
e 3 61 341.0
e 3 62 -951.0
e 3 63 638.0
e 3 64 -824.0
e 4 5 -385.0
e 4 6 -539.0
e 4 7 279.0
e 4 8 -568.0
e 4 9 -503.0
e 4 10 631.0
e 4 11 653.0
e 4 12 -807.0
e 4 13 -487.0
e 4 14 83.0
e 4 15 -177.0
e 4 16 -853.0
e 4 17 243.0
e 4 18 -694.0
e 4 19 -47.0
e 4 20 -718.0
e 4 21 -365.0
e 4 22 -64.0
e 4 23 -823.0
e 4 24 -925.0
e 4 25 562.0
e 4 26 -5.0
e 4 27 -22.0
e 4 28 -354.0
e 4 29 437.0
e 4 30 768.0
e 4 31 -210.0
e 4 32 220.0
e 4 33 719.0
e 4 34 -823.0
e 4 35 -3.0
e 4 36 -468.0
e 4 37 280.0
e 4 38 329.0
e 4 39 444.0
e 4 40 886.0
e 4 41 174.0
e 4 42 -21.0
e 4 43 292.0
e 4 44 -416.0
e 4 45 48.0
e 4 46 -15.0
e 4 47 -247.0
e 4 48 922.0
e 4 49 -178.0
e 4 50 -596.0
e 4 51 -554.0
e 4 52 930.0
e 4 53 932.0
e 4 54 -700.0
e 4 55 781.0
e 4 56 850.0
e 4 57 -713.0
e 4 58 538.0
e 4 59 -928.0
e 4 60 -885.0
e 4 61 675.0
e 4 62 587.0
e 4 63 771.0
e 4 64 171.0
e 5 6 858.0
e 5 7 -857.0
e 5 8 777.0
e 5 9 229.0
e 5 10 -693.0
e 5 11 479.0
e 5 12 806.0
e 5 13 500.0
e 5 14 302.0
e 5 15 -378.0
e 5 16 97.0
e 5 17 -267.0
e 5 18 927.0
e 5 19 723.0
e 5 20 947.0
e 5 21 456.0
e 5 22 -447.0
e 5 23 736.0
e 5 24 821.0
e 5 25 -950.0
e 5 26 -109.0
e 5 27 643.0
e 5 28 -769.0
e 5 29 -274.0
e 5 30 707.0
e 5 31 756.0
e 5 32 137.0
e 5 33 956.0
e 5 34 328.0
e 5 35 -524.0
e 5 36 324.0
e 5 37 48.0
e 5 38 16.0
e 5 39 -778.0
e 5 40 -527.0
e 5 41 152.0
e 5 42 -690.0
e 5 43 832.0
e 5 44 3.0
e 5 45 -415.0
e 5 46 -348.0
e 5 47 -138.0
e 5 48 -453.0
e 5 49 671.0
e 5 50 -445.0
e 5 51 -921.0
e 5 52 -567.0
e 5 53 515.0
e 5 54 889.0
e 5 55 -945.0
e 5 56 529.0
e 5 57 -185.0
e 5 58 -467.0
e 5 59 541.0
e 5 60 -738.0
e 5 61 -355.0
e 5 62 -701.0
e 5 63 -257.0
e 5 64 290.0
e 6 7 819.0
e 6 8 163.0
e 6 9 581.0
e 6 10 935.0
e 6 11 -587.0
e 6 12 -788.0
e 6 13 -328.0
e 6 14 202.0
e 6 15 827.0
e 6 16 -464.0
e 6 17 539.0
e 6 18 -209.0
e 6 19 -867.0
e 6 20 494.0
e 6 21 585.0
e 6 22 673.0
e 6 23 409.0
e 6 24 -170.0
e 6 25 84.0
e 6 26 -193.0
e 6 27 766.0
e 6 28 317.0
e 6 29 -834.0
e 6 30 -562.0
e 6 31 -588.0
e 6 32 627.0
e 6 33 957.0
e 6 34 -500.0
e 6 35 350.0
e 6 36 792.0
e 6 37 -618.0
e 6 38 410.0
e 6 39 -88.0
e 6 40 768.0
e 6 41 340.0
e 6 42 -236.0
e 6 43 631.0
e 6 44 530.0
e 6 45 738.0
e 6 46 -473.0
e 6 47 -168.0
e 6 48 -441.0
e 6 49 658.0
e 6 50 -403.0
e 6 51 749.0
e 6 52 581.0
e 6 53 221.0
e 6 54 -329.0
e 6 55 429.0
e 6 56 -442.0
e 6 57 -680.0
e 6 58 616.0
e 6 59 148.0
e 6 60 -786.0
e 6 61 122.0
e 6 62 -163.0
e 6 63 -405.0
e 6 64 -644.0
e 7 8 826.0
e 7 9 -867.0
e 7 10 -694.0
e 7 11 407.0
e 7 12 -566.0
e 7 13 523.0
e 7 14 -436.0
e 7 15 -522.0
e 7 16 -109.0
e 7 17 -150.0
e 7 18 -79.0
e 7 19 -791.0
e 7 20 310.0
e 7 21 260.0
e 7 22 480.0
e 7 23 921.0
e 7 24 226.0
e 7 25 -694.0
e 7 26 168.0
e 7 27 -309.0
e 7 28 390.0
e 7 29 -986.0
e 7 30 825.0
e 7 31 -92.0
e 7 32 -570.0
e 7 33 302.0
e 7 34 551.0
e 7 35 73.0
e 7 36 -75.0
e 7 37 788.0
e 7 38 -887.0
e 7 39 -737.0
e 7 40 492.0
e 7 41 -500.0
e 7 42 661.0
e 7 43 614.0
e 7 44 -174.0
e 7 45 549.0
e 7 46 410.0
e 7 47 -48.0
e 7 48 101.0
e 7 49 117.0
e 7 50 -633.0
e 7 51 965.0
e 7 52 -183.0
e 7 53 -431.0
e 7 54 413.0
e 7 55 -460.0
e 7 56 253.0
e 7 57 -610.0
e 7 58 668.0
e 7 59 807.0
e 7 60 -472.0
e 7 61 -701.0
e 7 62 902.0
e 7 63 922.0
e 7 64 -900.0
e 8 9 -557.0
e 8 10 307.0
e 8 11 213.0
e 8 12 -62.0
e 8 13 -160.0
e 8 14 -480.0
e 8 15 175.0
e 8 16 76.0
e 8 17 -24.0
e 8 18 -131.0
e 8 19 31.0
e 8 20 -850.0
e 8 21 97.0
e 8 22 -765.0
e 8 23 876.0
e 8 24 -954.0
e 8 25 333.0
e 8 26 -803.0
e 8 27 440.0
e 8 28 584.0
e 8 29 113.0
e 8 30 -340.0
e 8 31 -447.0
e 8 32 -29.0
e 8 33 954.0
e 8 34 -26.0
e 8 35 -95.0
e 8 36 -328.0
e 8 37 757.0
e 8 38 754.0
e 8 39 438.0
e 8 40 638.0
e 8 41 -26.0
e 8 42 -805.0
e 8 43 -371.0
e 8 44 -363.0
e 8 45 292.0
e 8 46 144.0
e 8 47 845.0
e 8 48 918.0
e 8 49 801.0
e 8 50 748.0
e 8 51 -172.0
e 8 52 178.0
e 8 53 184.0
e 8 54 506.0
e 8 55 -478.0
e 8 56 -79.0
e 8 57 848.0
e 8 58 -648.0
e 8 59 -951.0
e 8 60 -270.0
e 8 61 -205.0
e 8 62 685.0
e 8 63 618.0
e 8 64 -966.0
e 9 10 -154.0
e 9 11 535.0
e 9 12 527.0
e 9 13 457.0
e 9 14 -701.0
e 9 15 699.0
e 9 16 46.0
e 9 17 267.0
e 9 18 -532.0
e 9 19 662.0
e 9 20 -44.0
e 9 21 -879.0
e 9 22 1.0
e 9 23 850.0
e 9 24 -304.0
e 9 25 941.0
e 9 26 -657.0
e 9 27 890.0
e 9 28 5.0
e 9 29 465.0
e 9 30 -116.0
e 9 31 -986.0
e 9 32 -682.0
e 9 33 57.0
e 9 34 -535.0
e 9 35 911.0
e 9 36 -759.0
e 9 37 -524.0
e 9 38 -155.0
e 9 39 811.0
e 9 40 686.0
e 9 41 330.0
e 9 42 526.0
e 9 43 178.0
e 9 44 811.0
e 9 45 394.0
e 9 46 414.0
e 9 47 -19.0
e 9 48 81.0
e 9 49 841.0
e 9 50 597.0
e 9 51 193.0
e 9 52 -241.0
e 9 53 728.0
e 9 54 623.0
e 9 55 411.0
e 9 56 262.0
e 9 57 -89.0
e 9 58 -790.0
e 9 59 898.0
e 9 60 -625.0
e 9 61 569.0
e 9 62 876.0
e 9 63 -15.0
e 9 64 824.0
e 10 11 635.0
e 10 12 344.0
e 10 13 -630.0
e 10 14 -802.0
e 10 15 800.0
e 10 16 162.0
e 10 17 432.0
e 10 18 15.0
e 10 19 138.0
e 10 20 805.0
e 10 21 -748.0
e 10 22 535.0
e 10 23 79.0
e 10 24 184.0
e 10 25 98.0
e 10 26 -643.0
e 10 27 -485.0
e 10 28 811.0
e 10 29 961.0
e 10 30 -260.0
e 10 31 557.0
e 10 32 -97.0
e 10 33 635.0
e 10 34 -334.0
e 10 35 -429.0
e 10 36 768.0
e 10 37 687.0
e 10 38 -602.0
e 10 39 -957.0
e 10 40 814.0
e 10 41 861.0
e 10 42 504.0
e 10 43 -784.0
e 10 44 795.0
e 10 45 378.0
e 10 46 -786.0
e 10 47 445.0
e 10 48 941.0
e 10 49 273.0
e 10 50 -729.0
e 10 51 324.0
e 10 52 -611.0
e 10 53 103.0
e 10 54 -928.0
e 10 55 189.0
e 10 56 991.0
e 10 57 -1.0
e 10 58 -412.0
e 10 59 943.0
e 10 60 -121.0
e 10 61 737.0
e 10 62 673.0
e 10 63 -272.0
e 10 64 419.0
e 11 12 -729.0
e 11 13 -52.0
e 11 14 159.0
e 11 15 385.0
e 11 16 -216.0
e 11 17 -776.0
e 11 18 -47.0
e 11 19 160.0
e 11 20 96.0
e 11 21 819.0
e 11 22 264.0
e 11 23 -633.0
e 11 24 -515.0
e 11 25 903.0
e 11 26 -598.0
e 11 27 174.0
e 11 28 914.0
e 11 29 954.0
e 11 30 -788.0
e 11 31 -919.0
e 11 32 -673.0
e 11 33 -288.0
e 11 34 -278.0
e 11 35 975.0
e 11 36 -132.0
e 11 37 -825.0
e 11 38 784.0
e 11 39 -964.0
e 11 40 232.0
e 11 41 -44.0
e 11 42 682.0
e 11 43 943.0
e 11 44 144.0
e 11 45 -757.0
e 11 46 -744.0
e 11 47 99.0
e 11 48 -383.0
e 11 49 -176.0
e 11 50 47.0
e 11 51 487.0
e 11 52 -326.0
e 11 53 -795.0
e 11 54 338.0
e 11 55 449.0
e 11 56 -640.0
e 11 57 -247.0
e 11 58 466.0
e 11 59 -362.0
e 11 60 322.0
e 11 61 -105.0
e 11 62 998.0
e 11 63 359.0
e 11 64 674.0
e 12 13 384.0
e 12 14 -800.0
e 12 15 525.0
e 12 16 704.0
e 12 17 455.0
e 12 18 973.0
e 12 19 953.0
e 12 20 -860.0
e 12 21 912.0
e 12 22 -434.0
e 12 23 -225.0
e 12 24 -171.0
e 12 25 -121.0
e 12 26 -950.0
e 12 27 -701.0
e 12 28 95.0
e 12 29 -199.0
e 12 30 818.0
e 12 31 572.0
e 12 32 940.0
e 12 33 414.0
e 12 34 -224.0
e 12 35 -533.0
e 12 36 872.0
e 12 37 202.0
e 12 38 -229.0
e 12 39 280.0
e 12 40 349.0
e 12 41 243.0
e 12 42 530.0
e 12 43 435.0
e 12 44 679.0
e 12 45 155.0
e 12 46 -953.0
e 12 47 170.0
e 12 48 -482.0
e 12 49 -966.0
e 12 50 672.0
e 12 51 878.0
e 12 52 265.0
e 12 53 -45.0
e 12 54 522.0
e 12 55 76.0
e 12 56 218.0
e 12 57 -441.0
e 12 58 295.0
e 12 59 199.0
e 12 60 988.0
e 12 61 121.0
e 12 62 564.0
e 12 63 -554.0
e 12 64 723.0
e 13 14 657.0
e 13 15 839.0
e 13 16 880.0
e 13 17 -79.0
e 13 18 851.0
e 13 19 -530.0
e 13 20 427.0
e 13 21 -603.0
e 13 22 638.0
e 13 23 -543.0
e 13 24 304.0
e 13 25 -486.0
e 13 26 -459.0
e 13 27 626.0
e 13 28 992.0
e 13 29 -494.0
e 13 30 -545.0
e 13 31 -458.0
e 13 32 640.0
e 13 33 -745.0
e 13 34 -116.0
e 13 35 -135.0
e 13 36 646.0
e 13 37 722.0
e 13 38 33.0
e 13 39 -236.0
e 13 40 -368.0
e 13 41 533.0
e 13 42 -806.0
e 13 43 -502.0
e 13 44 -829.0
e 13 45 -172.0
e 13 46 -951.0
e 13 47 112.0
e 13 48 700.0
e 13 49 -289.0
e 13 50 760.0
e 13 51 847.0
e 13 52 609.0
e 13 53 -625.0
e 13 54 -519.0
e 13 55 -776.0
e 13 56 361.0
e 13 57 651.0
e 13 58 -997.0
e 13 59 -839.0
e 13 60 498.0
e 13 61 -542.0
e 13 62 -906.0
e 13 63 -159.0
e 13 64 925.0
e 14 15 926.0
e 14 16 404.0
e 14 17 462.0
e 14 18 -997.0
e 14 19 941.0
e 14 20 60.0
e 14 21 845.0
e 14 22 597.0
e 14 23 436.0
e 14 24 -627.0
e 14 25 587.0
e 14 26 -607.0
e 14 27 668.0
e 14 28 -794.0
e 14 29 -720.0
e 14 30 -24.0
e 14 31 -909.0
e 14 32 -68.0
e 14 33 -216.0
e 14 34 -159.0
e 14 35 -7.0
e 14 36 224.0
e 14 37 -388.0
e 14 38 -803.0
e 14 39 144.0
e 14 40 659.0
e 14 41 -674.0
e 14 42 -644.0
e 14 43 750.0
e 14 44 767.0
e 14 45 845.0
e 14 46 963.0
e 14 47 119.0
e 14 48 -819.0
e 14 49 739.0
e 14 50 988.0
e 14 51 174.0
e 14 52 593.0
e 14 53 -45.0
e 14 54 -257.0
e 14 55 824.0
e 14 56 172.0
e 14 57 -881.0
e 14 58 -43.0
e 14 59 -510.0
e 14 60 572.0
e 14 61 780.0
e 14 62 992.0
e 14 63 -922.0
e 14 64 608.0
e 15 16 118.0
e 15 17 700.0
e 15 18 998.0
e 15 19 -530.0
e 15 20 847.0
e 15 21 495.0
e 15 22 -706.0
e 15 23 227.0
e 15 24 -970.0
e 15 25 -736.0
e 15 26 485.0
e 15 27 524.0
e 15 28 -380.0
e 15 29 763.0
e 15 30 -287.0
e 15 31 -432.0
e 15 32 16.0
e 15 33 905.0
e 15 34 139.0
e 15 35 -723.0
e 15 36 721.0
e 15 37 -283.0
e 15 38 -774.0
e 15 39 311.0
e 15 40 419.0
e 15 41 757.0
e 15 42 426.0
e 15 43 -13.0
e 15 44 -847.0
e 15 45 -490.0
e 15 46 691.0
e 15 47 430.0
e 15 48 276.0
e 15 49 -789.0
e 15 50 218.0
e 15 51 732.0
e 15 52 -74.0
e 15 53 -650.0
e 15 54 -430.0
e 15 55 518.0
e 15 56 984.0
e 15 57 -736.0
e 15 58 609.0
e 15 59 -469.0
e 15 60 212.0
e 15 61 -253.0
e 15 62 464.0
e 15 63 -361.0
e 15 64 -518.0
e 16 17 -579.0
e 16 18 549.0
e 16 19 -934.0
e 16 20 -37.0
e 16 21 138.0
e 16 22 416.0
e 16 23 -15.0
e 16 24 65.0
e 16 25 208.0
e 16 26 -478.0
e 16 27 281.0
e 16 28 -716.0
e 16 29 -840.0
e 16 30 -770.0
e 16 31 -281.0
e 16 32 -320.0
e 16 33 657.0
e 16 34 271.0
e 16 35 929.0
e 16 36 -210.0
e 16 37 841.0
e 16 38 246.0
e 16 39 -967.0
e 16 40 -973.0
e 16 41 122.0
e 16 42 51.0
e 16 43 -257.0
e 16 44 766.0
e 16 45 -571.0
e 16 46 -982.0
e 16 47 -277.0
e 16 48 506.0
e 16 49 -469.0
e 16 50 718.0
e 16 51 103.0
e 16 52 -794.0
e 16 53 -382.0
e 16 54 88.0
e 16 55 297.0
e 16 56 298.0
e 16 57 713.0
e 16 58 151.0
e 16 59 -166.0
e 16 60 203.0
e 16 61 -116.0
e 16 62 -961.0
e 16 63 963.0
e 16 64 -156.0
e 17 18 -952.0
e 17 19 858.0
e 17 20 -640.0
e 17 21 -743.0
e 17 22 -130.0
e 17 23 -441.0
e 17 24 -702.0
e 17 25 -784.0
e 17 26 19.0
e 17 27 993.0
e 17 28 -24.0
e 17 29 664.0
e 17 30 261.0
e 17 31 994.0
e 17 32 -198.0
e 17 33 -373.0
e 17 34 216.0
e 17 35 -973.0
e 17 36 933.0
e 17 37 -781.0
e 17 38 -735.0
e 17 39 -370.0
e 17 40 -157.0
e 17 41 529.0
e 17 42 381.0
e 17 43 857.0
e 17 44 -986.0
e 17 45 924.0
e 17 46 -95.0
e 17 47 -489.0
e 17 48 -682.0
e 17 49 -687.0
e 17 50 425.0
e 17 51 -125.0
e 17 52 5.0
e 17 53 -659.0
e 17 54 -885.0
e 17 55 -477.0
e 17 56 -438.0
e 17 57 232.0
e 17 58 -785.0
e 17 59 -305.0
e 17 60 -114.0
e 17 61 487.0
e 17 62 968.0
e 17 63 -384.0
e 17 64 -943.0
e 18 19 25.0
e 18 20 -84.0
e 18 21 -87.0
e 18 22 -639.0
e 18 23 629.0
e 18 24 904.0
e 18 25 -897.0
e 18 26 952.0
e 18 27 -866.0
e 18 28 -762.0
e 18 29 -42.0
e 18 30 3.0
e 18 31 -427.0
e 18 32 669.0
e 18 33 -27.0
e 18 34 34.0
e 18 35 -354.0
e 18 36 -799.0
e 18 37 -578.0
e 18 38 519.0
e 18 39 -723.0
e 18 40 705.0
e 18 41 -874.0
e 18 42 -471.0
e 18 43 195.0
e 18 44 -939.0
e 18 45 -783.0
e 18 46 -988.0
e 18 47 542.0
e 18 48 -869.0
e 18 49 -143.0
e 18 50 496.0
e 18 51 976.0
e 18 52 386.0
e 18 53 343.0
e 18 54 -648.0
e 18 55 -42.0
e 18 56 846.0
e 18 57 640.0
e 18 58 -531.0
e 18 59 -713.0
e 18 60 824.0
e 18 61 291.0
e 18 62 875.0
e 18 63 991.0
e 18 64 -482.0
e 19 20 492.0
e 19 21 -828.0
e 19 22 -906.0
e 19 23 504.0
e 19 24 -995.0
e 19 25 -790.0
e 19 26 453.0
e 19 27 973.0
e 19 28 -842.0
e 19 29 36.0
e 19 30 828.0
e 19 31 -507.0
e 19 32 600.0
e 19 33 -268.0
e 19 34 135.0
e 19 35 -782.0
e 19 36 112.0
e 19 37 853.0
e 19 38 -164.0
e 19 39 699.0
e 19 40 638.0
e 19 41 -751.0
e 19 42 -817.0
e 19 43 676.0
e 19 44 -215.0
e 19 45 743.0
e 19 46 -385.0
e 19 47 665.0
e 19 48 -141.0
e 19 49 382.0
e 19 50 990.0
e 19 51 273.0
e 19 52 -41.0
e 19 53 -367.0
e 19 54 -795.0
e 19 55 544.0
e 19 56 968.0
e 19 57 -693.0
e 19 58 659.0
e 19 59 -672.0
e 19 60 -136.0
e 19 61 801.0
e 19 62 727.0
e 19 63 -106.0
e 19 64 185.0
e 20 21 382.0
e 20 22 -119.0
e 20 23 -765.0
e 20 24 847.0
e 20 25 230.0
e 20 26 -97.0
e 20 27 -203.0
e 20 28 36.0
e 20 29 924.0
e 20 30 188.0
e 20 31 -580.0
e 20 32 733.0
e 20 33 -391.0
e 20 34 818.0
e 20 35 -710.0
e 20 36 907.0
e 20 37 765.0
e 20 38 -943.0
e 20 39 -751.0
e 20 40 214.0
e 20 41 -168.0
e 20 42 422.0
e 20 43 867.0
e 20 44 -246.0
e 20 45 952.0
e 20 46 -737.0
e 20 47 981.0
e 20 48 334.0
e 20 49 557.0
e 20 50 -423.0
e 20 51 -884.0
e 20 52 -732.0
e 20 53 -275.0
e 20 54 452.0
e 20 55 941.0
e 20 56 -463.0
e 20 57 501.0
e 20 58 -414.0
e 20 59 453.0
e 20 60 175.0
e 20 61 989.0
e 20 62 737.0
e 20 63 -72.0
e 20 64 -93.0
e 21 22 573.0
e 21 23 711.0
e 21 24 -855.0
e 21 25 193.0
e 21 26 89.0
e 21 27 -194.0
e 21 28 172.0
e 21 29 -76.0
e 21 30 -63.0
e 21 31 -373.0
e 21 32 467.0
e 21 33 728.0
e 21 34 493.0
e 21 35 512.0
e 21 36 -962.0
e 21 37 921.0
e 21 38 174.0
e 21 39 875.0
e 21 40 -838.0
e 21 41 789.0
e 21 42 -46.0
e 21 43 295.0
e 21 44 932.0
e 21 45 449.0
e 21 46 515.0
e 21 47 -521.0
e 21 48 837.0
e 21 49 499.0
e 21 50 9.0
e 21 51 -912.0
e 21 52 -447.0
e 21 53 434.0
e 21 54 752.0
e 21 55 658.0
e 21 56 -317.0
e 21 57 799.0
e 21 58 892.0
e 21 59 -358.0
e 21 60 75.0
e 21 61 388.0
e 21 62 -651.0
e 21 63 -134.0
e 21 64 -787.0
e 22 23 277.0
e 22 24 406.0
e 22 25 -523.0
e 22 26 -600.0
e 22 27 -80.0
e 22 28 -340.0
e 22 29 145.0
e 22 30 -343.0
e 22 31 -389.0
e 22 32 296.0
e 22 33 -487.0
e 22 34 255.0
e 22 35 -796.0
e 22 36 -626.0
e 22 37 8.0
e 22 38 713.0
e 22 39 -381.0
e 22 40 -228.0
e 22 41 -845.0
e 22 42 -85.0
e 22 43 -315.0
e 22 44 125.0
e 22 45 594.0
e 22 46 111.0
e 22 47 -174.0
e 22 48 -981.0
e 22 49 970.0
e 22 50 -533.0
e 22 51 -913.0
e 22 52 -893.0
e 22 53 919.0
e 22 54 171.0
e 22 55 285.0
e 22 56 -615.0
e 22 57 -91.0
e 22 58 -615.0
e 22 59 -745.0
e 22 60 469.0
e 22 61 -173.0
e 22 62 528.0
e 22 63 -527.0
e 22 64 673.0
e 23 24 -273.0
e 23 25 -262.0
e 23 26 -599.0
e 23 27 -323.0
e 23 28 997.0
e 23 29 -67.0
e 23 30 679.0
e 23 31 420.0
e 23 32 -881.0
e 23 33 470.0
e 23 34 785.0
e 23 35 538.0
e 23 36 -580.0
e 23 37 -915.0
e 23 38 -43.0
e 23 39 -58.0
e 23 40 -894.0
e 23 41 -335.0
e 23 42 -392.0
e 23 43 542.0
e 23 44 -342.0
e 23 45 -245.0
e 23 46 455.0
e 23 47 303.0
e 23 48 -125.0
e 23 49 197.0
e 23 50 -202.0
e 23 51 17.0
e 23 52 -673.0
e 23 53 758.0
e 23 54 150.0
e 23 55 -350.0
e 23 56 -640.0
e 23 57 -190.0
e 23 58 -437.0
e 23 59 -420.0
e 23 60 -498.0
e 23 61 176.0
e 23 62 209.0
e 23 63 -288.0
e 23 64 -258.0
e 24 25 -362.0
e 24 26 -22.0
e 24 27 -516.0
e 24 28 -662.0
e 24 29 -348.0
e 24 30 -328.0
e 24 31 -638.0
e 24 32 467.0
e 24 33 835.0
e 24 34 -267.0
e 24 35 365.0
e 24 36 -696.0
e 24 37 215.0
e 24 38 963.0
e 24 39 -606.0
e 24 40 -910.0
e 24 41 -721.0
e 24 42 696.0
e 24 43 457.0
e 24 44 -735.0
e 24 45 -346.0
e 24 46 -936.0
e 24 47 -144.0
e 24 48 448.0
e 24 49 -828.0
e 24 50 264.0
e 24 51 -109.0
e 24 52 499.0
e 24 53 432.0
e 24 54 -953.0
e 24 55 447.0
e 24 56 530.0
e 24 57 260.0
e 24 58 -24.0
e 24 59 -240.0
e 24 60 -329.0
e 24 61 162.0
e 24 62 612.0
e 24 63 -632.0
e 24 64 -865.0
e 25 26 6.0
e 25 27 -699.0
e 25 28 805.0
e 25 29 -775.0
e 25 30 886.0
e 25 31 88.0
e 25 32 278.0
e 25 33 -918.0
e 25 34 -476.0
e 25 35 128.0
e 25 36 817.0
e 25 37 -496.0
e 25 38 -999.0
e 25 39 -749.0
e 25 40 120.0
e 25 41 -676.0
e 25 42 537.0
e 25 43 443.0
e 25 44 143.0
e 25 45 833.0
e 25 46 -684.0
e 25 47 32.0
e 25 48 352.0
e 25 49 418.0
e 25 50 -283.0
e 25 51 -236.0
e 25 52 476.0
e 25 53 -436.0
e 25 54 -21.0
e 25 55 868.0
e 25 56 -537.0
e 25 57 868.0
e 25 58 -362.0
e 25 59 157.0
e 25 60 -938.0
e 25 61 913.0
e 25 62 262.0
e 25 63 343.0
e 25 64 933.0
e 26 27 620.0
e 26 28 869.0
e 26 29 -692.0
e 26 30 112.0
e 26 31 -231.0
e 26 32 -208.0
e 26 33 -646.0
e 26 34 50.0
e 26 35 -74.0
e 26 36 -312.0
e 26 37 181.0
e 26 38 997.0
e 26 39 -158.0
e 26 40 663.0
e 26 41 -932.0
e 26 42 -396.0
e 26 43 516.0
e 26 44 -566.0
e 26 45 -926.0
e 26 46 -759.0
e 26 47 -836.0
e 26 48 -357.0
e 26 49 -995.0
e 26 50 982.0
e 26 51 -51.0
e 26 52 -370.0
e 26 53 15.0
e 26 54 198.0
e 26 55 584.0
e 26 56 119.0
e 26 57 25.0
e 26 58 -429.0
e 26 59 843.0
e 26 60 -687.0
e 26 61 388.0
e 26 62 -438.0
e 26 63 -522.0
e 26 64 -58.0
e 27 28 -102.0
e 27 29 -600.0
e 27 30 104.0
e 27 31 -442.0
e 27 32 -754.0
e 27 33 646.0
e 27 34 972.0
e 27 35 -914.0
e 27 36 288.0
e 27 37 0.0
e 27 38 53.0
e 27 39 313.0
e 27 40 10.0
e 27 41 754.0
e 27 42 -803.0
e 27 43 -730.0
e 27 44 401.0
e 27 45 -180.0
e 27 46 -918.0
e 27 47 924.0
e 27 48 305.0
e 27 49 173.0
e 27 50 544.0
e 27 51 -654.0
e 27 52 754.0
e 27 53 -832.0
e 27 54 318.0
e 27 55 -850.0
e 27 56 -103.0
e 27 57 778.0
e 27 58 337.0
e 27 59 146.0
e 27 60 -984.0
e 27 61 -211.0
e 27 62 -888.0
e 27 63 -972.0
e 27 64 289.0
e 28 29 84.0
e 28 30 -836.0
e 28 31 -18.0
e 28 32 -172.0
e 28 33 -258.0
e 28 34 -353.0
e 28 35 -389.0
e 28 36 339.0
e 28 37 -420.0
e 28 38 596.0
e 28 39 -103.0
e 28 40 -392.0
e 28 41 655.0
e 28 42 -709.0
e 28 43 -626.0
e 28 44 934.0
e 28 45 -383.0
e 28 46 -196.0
e 28 47 331.0
e 28 48 -77.0
e 28 49 995.0
e 28 50 184.0
e 28 51 633.0
e 28 52 -469.0
e 28 53 -737.0
e 28 54 -858.0
e 28 55 113.0
e 28 56 -867.0
e 28 57 -735.0
e 28 58 930.0
e 28 59 634.0
e 28 60 72.0
e 28 61 262.0
e 28 62 -450.0
e 28 63 -781.0
e 28 64 78.0
e 29 30 -430.0
e 29 31 519.0
e 29 32 -430.0
e 29 33 703.0
e 29 34 689.0
e 29 35 929.0
e 29 36 73.0
e 29 37 -148.0
e 29 38 463.0
e 29 39 96.0
e 29 40 190.0
e 29 41 -639.0
e 29 42 -508.0
e 29 43 -174.0
e 29 44 -610.0
e 29 45 -371.0
e 29 46 380.0
e 29 47 -629.0
e 29 48 585.0
e 29 49 570.0
e 29 50 -527.0
e 29 51 -830.0
e 29 52 -257.0
e 29 53 -602.0
e 29 54 69.0
e 29 55 438.0
e 29 56 504.0
e 29 57 -999.0
e 29 58 -137.0
e 29 59 -826.0
e 29 60 -557.0
e 29 61 176.0
e 29 62 591.0
e 29 63 -360.0
e 29 64 656.0
e 30 31 -593.0
e 30 32 187.0
e 30 33 -66.0
e 30 34 -502.0
e 30 35 388.0
e 30 36 -819.0
e 30 37 -51.0
e 30 38 889.0
e 30 39 588.0
e 30 40 182.0
e 30 41 517.0
e 30 42 -895.0
e 30 43 363.0
e 30 44 411.0
e 30 45 226.0
e 30 46 -625.0
e 30 47 -610.0
e 30 48 850.0
e 30 49 658.0
e 30 50 -673.0
e 30 51 13.0
e 30 52 -555.0
e 30 53 839.0
e 30 54 -143.0
e 30 55 46.0
e 30 56 -308.0
e 30 57 2.0
e 30 58 645.0
e 30 59 671.0
e 30 60 -411.0
e 30 61 -183.0
e 30 62 821.0
e 30 63 215.0
e 30 64 -621.0
e 31 32 251.0
e 31 33 190.0
e 31 34 851.0
e 31 35 -845.0
e 31 36 119.0
e 31 37 -434.0
e 31 38 -125.0
e 31 39 321.0
e 31 40 -932.0
e 31 41 119.0
e 31 42 -771.0
e 31 43 575.0
e 31 44 659.0
e 31 45 -789.0
e 31 46 -766.0
e 31 47 -421.0
e 31 48 -778.0
e 31 49 -411.0
e 31 50 962.0
e 31 51 -973.0
e 31 52 -48.0
e 31 53 -535.0
e 31 54 253.0
e 31 55 77.0
e 31 56 288.0
e 31 57 382.0
e 31 58 -879.0
e 31 59 -974.0
e 31 60 335.0
e 31 61 -55.0
e 31 62 -228.0
e 31 63 580.0
e 31 64 985.0
e 32 33 412.0
e 32 34 102.0
e 32 35 -278.0
e 32 36 881.0
e 32 37 -741.0
e 32 38 -528.0
e 32 39 -754.0
e 32 40 -997.0
e 32 41 484.0
e 32 42 -396.0
e 32 43 -526.0
e 32 44 662.0
e 32 45 862.0
e 32 46 -711.0
e 32 47 -165.0
e 32 48 -736.0
e 32 49 579.0
e 32 50 -516.0
e 32 51 -593.0
e 32 52 -496.0
e 32 53 -56.0
e 32 54 804.0
e 32 55 -565.0
e 32 56 402.0
e 32 57 212.0
e 32 58 -650.0
e 32 59 446.0
e 32 60 404.0
e 32 61 252.0
e 32 62 -140.0
e 32 63 -434.0
e 32 64 -472.0
e 33 34 91.0
e 33 35 376.0
e 33 36 9.0
e 33 37 -638.0
e 33 38 -501.0
e 33 39 -383.0
e 33 40 440.0
e 33 41 -652.0
e 33 42 -753.0
e 33 43 518.0
e 33 44 871.0
e 33 45 -522.0
e 33 46 244.0
e 33 47 778.0
e 33 48 -600.0
e 33 49 -900.0
e 33 50 -784.0
e 33 51 -591.0
e 33 52 741.0
e 33 53 -322.0
e 33 54 105.0
e 33 55 -373.0
e 33 56 78.0
e 33 57 -805.0
e 33 58 -773.0
e 33 59 963.0
e 33 60 188.0
e 33 61 483.0
e 33 62 405.0
e 33 63 -305.0
e 33 64 655.0
e 34 35 579.0
e 34 36 -388.0
e 34 37 770.0
e 34 38 929.0
e 34 39 -367.0
e 34 40 -870.0
e 34 41 -492.0
e 34 42 396.0
e 34 43 902.0
e 34 44 474.0
e 34 45 -693.0
e 34 46 -511.0
e 34 47 -455.0
e 34 48 -978.0
e 34 49 -18.0
e 34 50 882.0
e 34 51 -248.0
e 34 52 11.0
e 34 53 -454.0
e 34 54 -796.0
e 34 55 -826.0
e 34 56 121.0
e 34 57 870.0
e 34 58 -355.0
e 34 59 -157.0
e 34 60 -859.0
e 34 61 -388.0
e 34 62 424.0
e 34 63 147.0
e 34 64 744.0
e 35 36 987.0
e 35 37 -641.0
e 35 38 -923.0
e 35 39 140.0
e 35 40 -999.0
e 35 41 -224.0
e 35 42 -588.0
e 35 43 -591.0
e 35 44 -831.0
e 35 45 -803.0
e 35 46 150.0
e 35 47 -609.0
e 35 48 946.0
e 35 49 484.0
e 35 50 700.0
e 35 51 -878.0
e 35 52 -651.0
e 35 53 988.0
e 35 54 -468.0
e 35 55 -851.0
e 35 56 605.0
e 35 57 -196.0
e 35 58 717.0
e 35 59 -735.0
e 35 60 -66.0
e 35 61 612.0
e 35 62 -301.0
e 35 63 455.0
e 35 64 -824.0
e 36 37 295.0
e 36 38 517.0
e 36 39 195.0
e 36 40 306.0
e 36 41 759.0
e 36 42 -604.0
e 36 43 -12.0
e 36 44 71.0
e 36 45 -369.0
e 36 46 562.0
e 36 47 -956.0
e 36 48 356.0
e 36 49 -972.0
e 36 50 -431.0
e 36 51 -851.0
e 36 52 831.0
e 36 53 457.0
e 36 54 -824.0
e 36 55 -498.0
e 36 56 -290.0
e 36 57 -782.0
e 36 58 -995.0
e 36 59 -429.0
e 36 60 767.0
e 36 61 -689.0
e 36 62 -574.0
e 36 63 212.0
e 36 64 219.0
e 37 38 -315.0
e 37 39 117.0
e 37 40 -856.0
e 37 41 261.0
e 37 42 63.0
e 37 43 974.0
e 37 44 384.0
e 37 45 -805.0
e 37 46 639.0
e 37 47 -540.0
e 37 48 -819.0
e 37 49 -23.0
e 37 50 -464.0
e 37 51 410.0
e 37 52 -164.0
e 37 53 -404.0
e 37 54 -580.0
e 37 55 -184.0
e 37 56 522.0
e 37 57 83.0
e 37 58 751.0
e 37 59 -224.0
e 37 60 212.0
e 37 61 -323.0
e 37 62 -590.0
e 37 63 -850.0
e 37 64 -760.0
e 38 39 203.0
e 38 40 -130.0
e 38 41 -477.0
e 38 42 -153.0
e 38 43 173.0
e 38 44 825.0
e 38 45 -86.0
e 38 46 -90.0
e 38 47 -341.0
e 38 48 -793.0
e 38 49 -490.0
e 38 50 -582.0
e 38 51 -150.0
e 38 52 578.0
e 38 53 418.0
e 38 54 -420.0
e 38 55 -484.0
e 38 56 -369.0
e 38 57 435.0
e 38 58 157.0
e 38 59 724.0
e 38 60 -906.0
e 38 61 891.0
e 38 62 -622.0
e 38 63 240.0
e 38 64 833.0
e 39 40 -498.0
e 39 41 -517.0
e 39 42 874.0
e 39 43 -270.0
e 39 44 -656.0
e 39 45 -687.0
e 39 46 -340.0
e 39 47 -952.0
e 39 48 31.0
e 39 49 -885.0
e 39 50 525.0
e 39 51 -295.0
e 39 52 -389.0
e 39 53 -129.0
e 39 54 470.0
e 39 55 -61.0
e 39 56 917.0
e 39 57 385.0
e 39 58 -144.0
e 39 59 -878.0
e 39 60 -639.0
e 39 61 -568.0
e 39 62 576.0
e 39 63 -762.0
e 39 64 -565.0
e 40 41 347.0
e 40 42 -893.0
e 40 43 261.0
e 40 44 981.0
e 40 45 -896.0
e 40 46 322.0
e 40 47 -343.0
e 40 48 -316.0
e 40 49 -473.0
e 40 50 -614.0
e 40 51 -291.0
e 40 52 326.0
e 40 53 472.0
e 40 54 55.0
e 40 55 -668.0
e 40 56 -373.0
e 40 57 -560.0
e 40 58 250.0
e 40 59 207.0
e 40 60 -445.0
e 40 61 601.0
e 40 62 722.0
e 40 63 207.0
e 40 64 -169.0
e 41 42 239.0
e 41 43 -570.0
e 41 44 -497.0
e 41 45 -190.0
e 41 46 -331.0
e 41 47 -603.0
e 41 48 -393.0
e 41 49 355.0
e 41 50 117.0
e 41 51 -50.0
e 41 52 -764.0
e 41 53 -70.0
e 41 54 454.0
e 41 55 861.0
e 41 56 320.0
e 41 57 336.0
e 41 58 24.0
e 41 59 31.0
e 41 60 -976.0
e 41 61 -715.0
e 41 62 -464.0
e 41 63 239.0
e 41 64 -975.0
e 42 43 1.0
e 42 44 302.0
e 42 45 29.0
e 42 46 -915.0
e 42 47 -904.0
e 42 48 361.0
e 42 49 -986.0
e 42 50 512.0
e 42 51 96.0
e 42 52 300.0
e 42 53 890.0
e 42 54 376.0
e 42 55 -372.0
e 42 56 337.0
e 42 57 395.0
e 42 58 105.0
e 42 59 736.0
e 42 60 127.0
e 42 61 -748.0
e 42 62 350.0
e 42 63 780.0
e 42 64 -473.0
e 43 44 -621.0
e 43 45 -954.0
e 43 46 845.0
e 43 47 -983.0
e 43 48 -99.0
e 43 49 40.0
e 43 50 313.0
e 43 51 -84.0
e 43 52 -303.0
e 43 53 97.0
e 43 54 657.0
e 43 55 224.0
e 43 56 155.0
e 43 57 941.0
e 43 58 939.0
e 43 59 443.0
e 43 60 235.0
e 43 61 -45.0
e 43 62 -837.0
e 43 63 -225.0
e 43 64 403.0
e 44 45 -890.0
e 44 46 424.0
e 44 47 -673.0
e 44 48 40.0
e 44 49 433.0
e 44 50 987.0
e 44 51 -594.0
e 44 52 -970.0
e 44 53 -276.0
e 44 54 967.0
e 44 55 -995.0
e 44 56 -526.0
e 44 57 719.0
e 44 58 0.0
e 44 59 330.0
e 44 60 966.0
e 44 61 -708.0
e 44 62 950.0
e 44 63 -751.0
e 44 64 -351.0
e 45 46 -487.0
e 45 47 -255.0
e 45 48 640.0
e 45 49 990.0
e 45 50 614.0
e 45 51 804.0
e 45 52 -598.0
e 45 53 660.0
e 45 54 -628.0
e 45 55 637.0
e 45 56 897.0
e 45 57 -493.0
e 45 58 -947.0
e 45 59 -527.0
e 45 60 775.0
e 45 61 -513.0
e 45 62 -646.0
e 45 63 -861.0
e 45 64 -14.0
e 46 47 -51.0
e 46 48 279.0
e 46 49 196.0
e 46 50 962.0
e 46 51 -727.0
e 46 52 -963.0
e 46 53 -336.0
e 46 54 -233.0
e 46 55 924.0
e 46 56 -167.0
e 46 57 -383.0
e 46 58 -398.0
e 46 59 -498.0
e 46 60 -728.0
e 46 61 976.0
e 46 62 -464.0
e 46 63 -912.0
e 46 64 454.0
e 47 48 246.0
e 47 49 -655.0
e 47 50 -333.0
e 47 51 785.0
e 47 52 2.0
e 47 53 -672.0
e 47 54 826.0
e 47 55 -92.0
e 47 56 673.0
e 47 57 -791.0
e 47 58 602.0
e 47 59 -135.0
e 47 60 858.0
e 47 61 -836.0
e 47 62 157.0
e 47 63 -550.0
e 47 64 -66.0
e 48 49 -689.0
e 48 50 -510.0
e 48 51 -570.0
e 48 52 -187.0
e 48 53 -948.0
e 48 54 641.0
e 48 55 -859.0
e 48 56 139.0
e 48 57 -929.0
e 48 58 824.0
e 48 59 -367.0
e 48 60 -953.0
e 48 61 -450.0
e 48 62 997.0
e 48 63 567.0
e 48 64 375.0
e 49 50 -424.0
e 49 51 -969.0
e 49 52 556.0
e 49 53 388.0
e 49 54 73.0
e 49 55 919.0
e 49 56 452.0
e 49 57 489.0
e 49 58 -76.0
e 49 59 -13.0
e 49 60 402.0
e 49 61 371.0
e 49 62 668.0
e 49 63 344.0
e 49 64 308.0
e 50 51 868.0
e 50 52 -965.0
e 50 53 410.0
e 50 54 415.0
e 50 55 -472.0
e 50 56 -966.0
e 50 57 449.0
e 50 58 -803.0
e 50 59 -11.0
e 50 60 287.0
e 50 61 683.0
e 50 62 81.0
e 50 63 823.0
e 50 64 152.0
e 51 52 158.0
e 51 53 -88.0
e 51 54 -382.0
e 51 55 248.0
e 51 56 784.0
e 51 57 -727.0
e 51 58 -469.0
e 51 59 -565.0
e 51 60 -640.0
e 51 61 -470.0
e 51 62 587.0
e 51 63 842.0
e 51 64 -876.0
e 52 53 -234.0
e 52 54 909.0
e 52 55 -790.0
e 52 56 -402.0
e 52 57 -998.0
e 52 58 976.0
e 52 59 -352.0
e 52 60 -819.0
e 52 61 -706.0
e 52 62 -610.0
e 52 63 868.0
e 52 64 447.0
e 53 54 -215.0
e 53 55 107.0
e 53 56 -639.0
e 53 57 291.0
e 53 58 189.0
e 53 59 535.0
e 53 60 754.0
e 53 61 -790.0
e 53 62 -725.0
e 53 63 -869.0
e 53 64 837.0
e 54 55 -983.0
e 54 56 -897.0
e 54 57 235.0
e 54 58 41.0
e 54 59 130.0
e 54 60 192.0
e 54 61 653.0
e 54 62 58.0
e 54 63 -953.0
e 54 64 983.0
e 55 56 780.0
e 55 57 -59.0
e 55 58 -396.0
e 55 59 -430.0
e 55 60 504.0
e 55 61 567.0
e 55 62 851.0
e 55 63 -458.0
e 55 64 543.0
e 56 57 235.0
e 56 58 -966.0
e 56 59 -461.0
e 56 60 -695.0
e 56 61 843.0
e 56 62 -960.0
e 56 63 -915.0
e 56 64 -750.0
e 57 58 273.0
e 57 59 201.0
e 57 60 484.0
e 57 61 178.0
e 57 62 -258.0
e 57 63 155.0
e 57 64 807.0
e 58 59 -101.0
e 58 60 428.0
e 58 61 931.0
e 58 62 -343.0
e 58 63 -818.0
e 58 64 -821.0
e 59 60 784.0
e 59 61 -226.0
e 59 62 -982.0
e 59 63 146.0
e 59 64 390.0
e 60 61 493.0
e 60 62 -483.0
e 60 63 954.0
e 60 64 -916.0
e 61 62 -2.0
e 61 63 -252.0
e 61 64 -609.0
e 62 63 265.0
e 62 64 468.0
e 63 64 -51.0
